15
60
4 12
2 2
2 1
1 1
10 4
4 12
2 2
2 1
1 1
10 4
4 12
2 2
2 1
1 1
10 4
4 12
2 2
2 1
1 1
10 4
4 12
2 2
2 1
1 1
10 4
4 12
2 2
2 1
1 1
10 4
4 12
2 2
2 1
1 1
10 4
4 12
2 2
2 1
1 1
10 4
10 4
4 12
2 2
2 1
1 1
10 4
4 12
2 2
2 1
1 1
10 4
10 4
4 12
2 2
2 1
1 1
10 4
10 4
4 12
2 2
2 1
1 1
10 4
